Name: Folic acid
Synon: Folic_Acid
Synon: Folic_Acid
InChI: InChI=1S/C19H19N7O6/c20-19-25-15-14(17(30)26-19)23-11(8-22-15)7-21-10-3-1-9(2-4-10)16(29)24-12(18(31)32)5-6-13(27)28/h1-4,8,12,21H,5-7H2,(H,24,29)(H,27,28)(H,31,32)(H3,20,22,25,26,30)
InChIKey: OVBPIULPVIDEAO-UHFFFAOYSA-N
IBM: D1B2F40B4E0E4E2C94801BFD5D783B64
IUPHAR-DB: 4563
IBM: 1162DA40440A6DF347ABB47B3756AD5C
Pubchem SID: 26755300
Pubchem SID: 126817794
Pubchem SID: 4400680
Pubchem SID: 221672987
AKos Consulting & Solutions: AKOS000668649
CAS: 47707-78-8
Pubchem SID: 4792908
Pubchem SID: 225226524
Pubchem SID: 128866026
Pubchem SID: 6593301
ChemIDplus: 0032108068
Pubchem SID: 162088469
Pubchem SID: 163135279
Pubchem SID: 69619
Ambinter: ST024766
Pubchem SID: 162173231
Pubchem SID: 226395977
Pubchem SID: 48464272
CAS: 65165-91-5
MP Biomedicals: 194665
Pubchem SID: 189562240
ChemDB: 3966703
IBM: 1E19B0549924C060BF2D848BAD62BA34
ChemFrog: 888-710-001
Pubchem SID: 162092961
Pubchem SID: 143441601
ChemDB: 4260112
Pubchem SID: 184563121
molecule formula: C19H19N7O6
Pubchem SID: 5605500
TimTec: ST024766
AKos Consulting & Solutions: AKOS024278945
EPA Substance Registry Services: 3046
Pubchem SID: 58005439
Aurum Pharmatech LLC: NE11151
eInhibitors: 3405
ChemDB: 4259156
Collaborative Drug Discovery, Inc.: 47314
SCRIPDB: US06509323-20030121-C00026_6
Pubchem SID: 248160106
calculated InChI Code: InChI=1S/C19H19N7O6/c20-19-25-15-14(17(30)26-19)23-11(8-22-15)7-21-10-3-1-9(2-4-10)16(29)24-12(18(31)32)5-6-13(27)28/h1-4,8,12,21H,5-7H2,(H,24,29)(H,27,28)(H,31,32)(H3,20,22,25,26,30)
Aurum Pharmatech LLC: T5851
total exact mass: 441.139681328
IBM: 5D6961A49B9DE624C0D34693F6B7D2BB
Enamine: T5614846
IBM: 13730BA1F205237A517F0BC3FF1129C4
AAA Chemistry: AR-1K4309
Chembase.cn: 102449
Assembly Blocks Pvt. Ltd.: AB0090543
Collaborative Drug Discovery, Inc.: 45562
Pubchem SID: 142016409
Pubchem SID: 252128222
Pubchem SID: 93299607
Pubchem SID: 223785831
AKos Consulting & Solutions: AKOS017259271
NextMove Software: OVBPIULPVIDEAO-LBPRGKRZSA-N
Pubchem SID: 85086191
ChemTik: CTK8G0378
Pubchem SID: 117543834
Chembase.cn: 251994
Pubchem SID: 223399271
CAS: 32108-06-8
Pubchem SID: 164307904
Pubchem SID: 85086189
Pubchem SID: 178101284
DTP/NCI: 3073
Pubchem SID: 8137817
Vitas-M Laboratory: STL301837
ChemMol: 99125118
ChEMBL: CHEMBL277040
3B_SCI: 3B3-016644
ASINEX: BAS 00266239
AKos Consulting & Solutions: AKOS016368368
Vitas-M Laboratory: STK368550
MTDP: NSC3073
ChemFrog: 888-848-437
NCGC: NCGC00186648-01
Chembase.cn: 192007
ChemDB: 6914095
Pubchem SID: 169958186
CAS: 103577-45-3
Pubchem SID: 10589131
NIST: OVBPIULPVIDEAO-UHFFFAOYSA-N
Pubchem SID: 105215855
ABI Chem: AC1L1FV2
Pubchem SID: 164247917
Pubchem SID: 91473606
Angene Chemical: Folic Acid
Pubchem SID: 135125557
ChemMol: 49401499
CAS: 24350-74-1
Pubchem SID: 179323990
Pubchem SID: 176254562
Pubchem SID: 105834760
Pubchem SID: 124526358
SureChEMBL: SCHEMBL3877
Pubchem SID: 124892082
Pubchem SID: 164054726
Pubchem SID: 241197811
Pubchem SID: 104303419
ABI Chem: AC1Q5SFX
Pubchem SID: 178101283
SRMLSC: UPCMLD-DP091
MP Biomedicals: 101725
Chembase.cn: 105830
Pubchem SID: 212296251
Pubchem SID: 16870013
Pubchem SID: 10528707
Mcule: MCULE-3509109723
PubChem CID: 3405
MolPort: MolPort-023-220-147
Pubchem SID: 103190904
Pubchem SID: 124897835
AK Scientific, Inc. (AKSCI): 67844
Pubchem SID: 128866030
Pubchem SID: 140024264
Pubchem SID: 225226248
Pubchem SID: 241116014
MolPort: MolPort-005-932-387
Pubchem SID: 103838508
NIST Chemistry WebBook: 590009412
TimTec: SBB072753
Pubchem SID: 88727157
Pubchem SID: 179148571
Pubchem SID: 128866025
Pubchem SID: 243117307
Pubchem SID: 126665597
Pubchem SID: 85086190
IUPHAR-DB: 4562
MolPort: MolPort-001-684-168
SCRIPDB: US06369058-20020409-C00001_1
calculated InChI Key: OVBPIULPVIDEAO-UHFFFAOYSA-N
Pubchem SID: 218926106
NCGC: NCGC00161646-01
Pubchem SID: 46488017
NCGC: NCGC00142391-04
AKos Consulting & Solutions: AKOS001287554
Pubchem SID: 125353887
MP Biomedicals: 199550
Thomson Pharma: 01358233
CAS: 59-30-3
Pubchem SID: 125727680
MolPort: MolPort-004-527-329
Pubchem SID: 249911539
flow rate: 0.6
collision energy: 20
flow gradient: linear from 98A/2B at 0 min to 2A/98B at 13 min, hold 6 min at 2A/98B, reequilibration 98A/2B (5 min)
column name: Agilent C8 Cartridge Column 2.1X30mm 3.5 micron (guard); Agilent SB-Aq 2.1x50mm 1.8 micron (analytical)
precursor m/z: 440.1297
solvent: A water with 0.2% acetic acid
scanning: m/z 100-1000
retention time: 3.998
authors: Cuthbertson DJ, Johnson SR, Lange BM, Institute of Biological Chemistry, Washington State University
instrument type: LC-ESI-QTOF
column temperature: 60 C
license: CC BY-SA
compound class: N/A
ion mode: NEGATIVE
origin: BML00994.txt
precursor type: [M-H]-
exact mass: 441.139681
instrument: Agilent 1200 RRLC; Agilent 6520 QTOF
ms level: MS2
base peak: 440.1297
solvent: B methanol with 0.2% acetic acid
retention time: 3.998
accession: BML00994
collision gas: N2
Tag: massbank
Tag: suspect value
Tag: LCMS
Num Peaks: 32
103.4112 1.445783
119.0373 2.53012
128.0353 4.337349
128.0504 1.385542
132.0559 1.987952
146.0434 2.409639 "[M-3H]-"
148.0662 1.987952
174.0374 1.506024
175.0523 4.819277
175.0855 1.566265
177.5903 1.26506
203.0848 3.373494
221.0938 1.445783
262.7029 1.26506
265.0877 2.771084
268.0817 1.807229
293.0798 9.939759
293.1023 2.349398
311.0903 74.819277
311.1394 2.891566
334.146 3.975904
334.1996 1.927711
335.1203 2.289157
352.1573 4.759036
353.1327 6.204819
378.1245 3.614458
379.1122 3.493976
394.1554 1.204819
396.142 18.012048
397.1227 3.73494
422.1213 16.204819 "[M-H2O-H]-"
440.1297 100 "[M-H]-"

